NAME 
ROWS
 N  OBJ
 L  R0      
 L  R1      
 L  R2      
 E  R3      
 E  R4      
 E  R5      
 E  R6      
 E  R7      
 E  R8      
 E  R9      
 E  R10     
 E  R11     
 E  R12     
 E  R13     
 E  R14     
 E  R15     
 E  R16     
 E  R17     
 E  R18     
 E  R19     
 E  R20     
 E  R21     
 E  R22     
 E  R23     
 E  R24     
 E  R25     
 E  R26     
 E  R27     
COLUMNS
    MARKER    'MARKER'                 'INTORG'
    I0(10)    OBJ       142
    I0(10)    R0        125
    I0(10)    R1        20
    I0(10)    R2        174
    I0(10)    R4        -1
    I0(10)    R5        10
    I0(10)    R6        9
    I0(10)    R8        5
    I0(10)    R9        1
    I0(10)    R11       17
    I0(10)    R27       1
    I1(13)    OBJ       -101
    I1(13)    R0        1
    I1(13)    R1        162
    I1(13)    R2        113
    I1(13)    R3        5
    I1(13)    R4        6
    I1(13)    R6        3
    I1(13)    R9        8
    I1(13)    R11       11
    I1(13)    R14       7
    I1(13)    R15       19
    I1(13)    R16       12
    I1(13)    R17       12
    I1(13)    R27       1
    I2(9)     OBJ       -133
    I2(9)     R0        143
    I2(9)     R1        165
    I2(9)     R2        126
    I2(9)     R6        19
    I2(9)     R10       18
    I2(9)     R12       3
    I2(9)     R14       12
    I2(9)     R17       4
    I2(9)     R27       1
    I3(10)    OBJ       137
    I3(10)    R0        177
    I3(10)    R1        31
    I3(10)    R2        -72
    I3(10)    R6        14
    I3(10)    R7        -1
    I3(10)    R8        -1
    I3(10)    R12       17
    I3(10)    R13       18
    I3(10)    R15       18
    I3(10)    R27       1
    I4(12)    OBJ       -110
    I4(12)    R0        164
    I4(12)    R1        -21
    I4(12)    R2        -119
    I4(12)    R3        17
    I4(12)    R5        3
    I4(12)    R6        17
    I4(12)    R7        12
    I4(12)    R8        17
    I4(12)    R10       13
    I4(12)    R12       5
    I4(12)    R14       4
    I4(12)    R27       1
    I5(15)    OBJ       -150
    I5(15)    R0        -122
    I5(15)    R1        -133
    I5(15)    R2        -116
    I5(15)    R3        17
    I5(15)    R7        9
    I5(15)    R8        15
    I5(15)    R9        14
    I5(15)    R10       12
    I5(15)    R11       13
    I5(15)    R12       6
    I5(15)    R13       2
    I5(15)    R14       18
    I5(15)    R15       11
    I5(15)    R16       7
    I5(15)    R27       1
    I6(10)    OBJ       -160
    I6(10)    R0        142
    I6(10)    R1        35
    I6(10)    R2        -74
    I6(10)    R4        12
    I6(10)    R6        5
    I6(10)    R9        18
    I6(10)    R11       19
    I6(10)    R12       4
    I6(10)    R15       7
    I6(10)    R27       1
    I7(13)    OBJ       -36
    I7(13)    R0        -153
    I7(13)    R1        -88
    I7(13)    R2        17
    I7(13)    R3        1
    I7(13)    R4        -1
    I7(13)    R6        1
    I7(13)    R7        3
    I7(13)    R9        5
    I7(13)    R11       5
    I7(13)    R13       16
    I7(13)    R14       10
    I7(13)    R16       -1
    I7(13)    R27       1
    I8(11)    OBJ       154
    I8(11)    R0        -79
    I8(11)    R1        -193
    I8(11)    R2        109
    I8(11)    R3        1
    I8(11)    R4        1
    I8(11)    R11       12
    I8(11)    R12       2
    I8(11)    R15       11
    I8(11)    R16       2
    I8(11)    R17       -1
    I8(11)    R27       1
    I9(14)    OBJ       134
    I9(14)    R0        -91
    I9(14)    R1        192
    I9(14)    R2        189
    I9(14)    R3        17
    I9(14)    R5        16
    I9(14)    R6        10
    I9(14)    R7        15
    I9(14)    R8        11
    I9(14)    R9        19
    I9(14)    R10       11
    I9(14)    R11       17
    I9(14)    R12       4
    I9(14)    R16       19
    I9(14)    R27       1
    I10(9)    OBJ       -69
    I10(9)    R0        -71
    I10(9)    R1        -144
    I10(9)    R2        -128
    I10(9)    R6        17
    I10(9)    R7        10
    I10(9)    R11       17
    I10(9)    R13       19
    I10(9)    R16       16
    I10(9)    R27       1
    I11(13)   OBJ       -97
    I11(13)   R0        -181
    I11(13)   R1        27
    I11(13)   R2        193
    I11(13)   R6        5
    I11(13)   R7        -1
    I11(13)   R8        3
    I11(13)   R9        16
    I11(13)   R10       5
    I11(13)   R12       12
    I11(13)   R13       2
    I11(13)   R14       13
    I11(13)   R15       4
    I11(13)   R27       1
    I12(7)    OBJ       -152
    I12(7)    R0        -159
    I12(7)    R1        -120
    I12(7)    R2        119
    I12(7)    R7        2
    I12(7)    R9        10
    I12(7)    R12       16
    I12(7)    R27       1
    I13(9)    OBJ       128
    I13(9)    R0        38
    I13(9)    R1        47
    I13(9)    R2        138
    I13(9)    R3        17
    I13(9)    R5        15
    I13(9)    R8        3
    I13(9)    R10       13
    I13(9)    R12       1
    I13(9)    R27       1
    I14(12)   OBJ       -138
    I14(12)   R0        -57
    I14(12)   R1        167
    I14(12)   R2        -47
    I14(12)   R3        18
    I14(12)   R6        10
    I14(12)   R7        13
    I14(12)   R8        10
    I14(12)   R11       14
    I14(12)   R13       12
    I14(12)   R14       18
    I14(12)   R17       12
    I14(12)   R27       1
    MARKER    'MARKER'                 'INTEND'
    C15(15)   OBJ       -4
    C15(15)   R0        -7
    C15(15)   R1        -10
    C15(15)   R2        -10
    C15(15)   R4        -1
    C15(15)   R5        2
    C15(15)   R8        8
    C15(15)   R9        10
    C15(15)   R10       4
    C15(15)   R11       1
    C15(15)   R13       -1
    C15(15)   R19       4
    C15(15)   R21       11
    C15(15)   R22       12
    C15(15)   R24       7
    C15(15)   R26       14
    C16(16)   OBJ       2
    C16(16)   R0        -8
    C16(16)   R1        5
    C16(16)   R2        1
    C16(16)   R4        16
    C16(16)   R5        7
    C16(16)   R7        15
    C16(16)   R8        5
    C16(16)   R12       15
    C16(16)   R13       16
    C16(16)   R16       15
    C16(16)   R17       7
    C16(16)   R19       17
    C16(16)   R22       12
    C16(16)   R24       12
    C16(16)   R25       5
    C16(16)   R26       13
    C17(16)   OBJ       -4
    C17(16)   R0        8
    C17(16)   R2        -3
    C17(16)   R3        1
    C17(16)   R7        7
    C17(16)   R9        11
    C17(16)   R10       12
    C17(16)   R11       17
    C17(16)   R12       7
    C17(16)   R13       8
    C17(16)   R14       7
    C17(16)   R15       8
    C17(16)   R17       -1
    C17(16)   R22       -1
    C17(16)   R24       -1
    C17(16)   R25       9
    C17(16)   R26       10
    C18(16)   OBJ       -9
    C18(16)   R1        -3
    C18(16)   R2        -6
    C18(16)   R4        5
    C18(16)   R5        15
    C18(16)   R6        18
    C18(16)   R7        8
    C18(16)   R9        12
    C18(16)   R10       8
    C18(16)   R12       11
    C18(16)   R13       19
    C18(16)   R14       11
    C18(16)   R18       14
    C18(16)   R19       16
    C18(16)   R20       19
    C18(16)   R21       14
    C18(16)   R26       18
    C19(13)   OBJ       2
    C19(13)   R0        -1
    C19(13)   R1        7
    C19(13)   R2        9
    C19(13)   R4        3
    C19(13)   R8        1
    C19(13)   R12       14
    C19(13)   R14       5
    C19(13)   R15       12
    C19(13)   R17       17
    C19(13)   R18       5
    C19(13)   R20       7
    C19(13)   R22       16
    C19(13)   R25       9
    C20(17)   OBJ       2
    C20(17)   R0        1
    C20(17)   R1        -6
    C20(17)   R2        -3
    C20(17)   R3        4
    C20(17)   R4        2
    C20(17)   R5        1
    C20(17)   R8        16
    C20(17)   R9        17
    C20(17)   R10       18
    C20(17)   R12       10
    C20(17)   R15       2
    C20(17)   R16       9
    C20(17)   R20       4
    C20(17)   R21       2
    C20(17)   R23       7
    C20(17)   R24       5
    C20(17)   R25       9
    C21(16)   R0        -4
    C21(16)   R2        2
    C21(16)   R3        11
    C21(16)   R6        2
    C21(16)   R8        -1
    C21(16)   R9        -1
    C21(16)   R10       4
    C21(16)   R11       11
    C21(16)   R12       1
    C21(16)   R14       18
    C21(16)   R15       6
    C21(16)   R16       10
    C21(16)   R18       3
    C21(16)   R22       1
    C21(16)   R25       16
    C21(16)   R26       12
    C22(15)   OBJ       2
    C22(15)   R0        -3
    C22(15)   R1        2
    C22(15)   R2        -5
    C22(15)   R3        2
    C22(15)   R4        1
    C22(15)   R7        14
    C22(15)   R9        9
    C22(15)   R10       10
    C22(15)   R11       7
    C22(15)   R12       7
    C22(15)   R13       8
    C22(15)   R16       13
    C22(15)   R21       11
    C22(15)   R24       6
    C22(15)   R26       17
    C23(18)   OBJ       8
    C23(18)   R0        6
    C23(18)   R1        -3
    C23(18)   R2        -2
    C23(18)   R3        4
    C23(18)   R5        1
    C23(18)   R6        4
    C23(18)   R7        10
    C23(18)   R8        2
    C23(18)   R9        13
    C23(18)   R12       7
    C23(18)   R16       2
    C23(18)   R18       10
    C23(18)   R20       18
    C23(18)   R21       10
    C23(18)   R22       5
    C23(18)   R24       1
    C23(18)   R25       11
    C23(18)   R26       6
    C24(13)   OBJ       -10
    C24(13)   R0        4
    C24(13)   R1        -7
    C24(13)   R2        2
    C24(13)   R4        9
    C24(13)   R5        4
    C24(13)   R8        15
    C24(13)   R9        12
    C24(13)   R10       11
    C24(13)   R17       1
    C24(13)   R18       3
    C24(13)   R22       6
    C24(13)   R24       6
    C24(13)   R25       7
    C25(1)    R3        1
    C26(1)    R4        1
    C27(1)    R5        1
    C28(1)    R6        1
    C29(1)    R7        1
    C30(1)    R8        1
    C31(1)    R9        1
    C32(1)    R10       1
    C33(1)    R11       1
    C34(1)    R12       1
    C35(1)    R13       1
    C36(1)    R14       1
    C37(1)    R15       1
    C38(1)    R16       1
    C39(1)    R17       1
    C40(1)    R18       1
    C41(1)    R19       1
    C42(1)    R20       1
    C43(1)    R21       1
    C44(1)    R22       1
    C45(1)    R23       1
    C46(1)    R24       1
    C47(1)    R25       1
    C48(1)    R26       1
    C49(1)    R27       1
RHS
    RHS1      R0        -1.5682412060301507e+02
    RHS1      R1        -3.1904020100502510e+02
    RHS1      R2        -1.6422110552763819e+01
    RHS1      R3        81
    RHS1      R4        74
    RHS1      R5        82
    RHS1      R6        62
    RHS1      R7        76
    RHS1      R8        71
    RHS1      R9        95
    RHS1      R10       53
    RHS1      R11       97
    RHS1      R12       76
    RHS1      R13       80
    RHS1      R14       81
    RHS1      R15       51
    RHS1      R16       79
    RHS1      R17       71
    RHS1      R18       83
    RHS1      R19       99
    RHS1      R20       70
    RHS1      R21       83
    RHS1      R22       52
    RHS1      R23       69
    RHS1      R24       75
    RHS1      R25       56
    RHS1      R26       70
    RHS1      R27       5
BOUNDS
 UP BND1      I0(10)    2
 UP BND1      I1(13)    2
 UP BND1      I2(9)     2
 UP BND1      I3(10)    2
 UP BND1      I4(12)    2
 UP BND1      I5(15)    2
 UP BND1      I6(10)    2
 UP BND1      I7(13)    2
 UP BND1      I8(11)    2
 UP BND1      I9(14)    2
 UP BND1      I10(9)    2
 UP BND1      I11(13)   2
 UP BND1      I12(7)    2
 UP BND1      I13(9)    2
 UP BND1      I14(12)   2
ENDATA
